p cnf 128 461
3 1 0
3 -2 0
-1 2 -3 0
5 -3 0
5 -4 0
3 4 -5 0
9 -7 0
9 8 0
7 -8 -9 0
11 9 0
11 10 0
-9 -10 -11 0
-6 -11 -12 0
6 11 -12 0
-6 11 12 0
6 -11 12 0
-13 11 0
-13 -6 0
-11 6 13 0
12 13 -14 0
-12 -13 -14 0
12 -13 14 0
-12 13 14 0
9 15 -16 0
-9 -15 -16 0
9 -15 16 0
-9 15 16 0
-18 -16 0
-18 -17 0
16 17 18 0
-19 14 0
-19 18 0
-14 -18 19 0
-20 5 0
-20 19 0
-5 -19 20 0
11 -3 -21 0
-11 3 -21 0
11 3 21 0
-11 -3 21 0
6 4 -22 0
-6 -4 -22 0
6 -4 22 0
-6 4 22 0
-24 22 0
-24 23 0
-22 -23 24 0
-25 -22 0
-25 -24 0
22 24 25 0
26 21 0
26 25 0
-21 -25 -26 0
-20 26 -27 0
20 -26 -27 0
-20 -26 27 0
20 26 27 0
28 -15 0
28 4 0
15 -4 -28 0
28 -29 -30 0
-28 29 -30 0
28 29 30 0
-28 -29 30 0
-8 -17 -31 0
8 17 -31 0
-8 17 31 0
8 -17 31 0
32 -30 0
32 -31 0
30 31 -32 0
-33 15 0
-33 7 0
-15 -7 33 0
-34 -28 0
-34 -33 0
28 33 34 0
6 34 -35 0
-6 -34 -35 0
6 -34 35 0
-6 34 35 0
36 32 0
36 35 0
-32 -35 -36 0
-16 -21 -37 0
16 21 -37 0
-16 21 37 0
16 -21 37 0
-38 16 0
-38 16 0
-16 38 0
-39 38 0
-39 -28 0
-38 28 39 0
-40 -39 0
-40 -28 0
39 28 40 0
41 -37 0
41 40 0
37 -40 -41 0
-42 12 -43 0
42 -12 -43 0
-42 -12 43 0
42 12 43 0
-21 -15 -44 0
21 15 -44 0
-21 15 44 0
21 -15 44 0
43 -44 -45 0
-43 44 -45 0
43 44 45 0
-43 -44 45 0
-41 45 -46 0
41 -45 -46 0
-41 -45 46 0
41 45 46 0
-15 -7 -47 0
15 7 -47 0
-15 7 47 0
15 -7 47 0
48 -47 0
48 -17 0
47 17 -48 0
-49 7 0
-49 8 0
-7 -8 49 0
50 4 0
50 -33 0
-4 33 -50 0
49 -50 -51 0
-49 50 -51 0
49 50 51 0
-49 -50 51 0
-52 3 0
-52 -42 0
-3 42 52 0
-51 -52 -53 0
51 52 -53 0
-51 52 53 0
51 -52 53 0
48 -53 -54 0
-48 53 -54 0
48 53 54 0
-48 -53 54 0
46 -54 -55 0
-46 54 -55 0
46 54 55 0
-46 -54 55 0
-36 55 -56 0
36 -55 -56 0
-36 -55 56 0
36 55 56 0
57 27 0
57 -56 0
-27 56 -57 0
-58 10 0
-58 -22 0
-10 22 58 0
-59 -16 0
-59 3 0
16 -3 59 0
58 -59 -60 0
-58 59 -60 0
58 59 60 0
-58 -59 60 0
-61 -60 0
-61 59 0
60 -59 61 0
-62 -61 0
-62 18 0
61 -18 62 0
63 -49 0
63 9 0
49 -9 -63 0
64 13 0
64 -63 0
-13 63 -64 0
-65 64 0
-65 -7 0
-64 7 65 0
62 -65 -66 0
-62 65 -66 0
62 65 66 0
-62 -65 66 0
67 29 0
67 -24 0
-29 24 -67 0
9 31 -68 0
-9 -31 -68 0
9 -31 68 0
-9 31 68 0
-69 -16 0
-69 4 0
16 -4 69 0
69 10 -70 0
-69 -10 -70 0
69 -10 70 0
-69 10 70 0
68 -70 -71 0
-68 70 -71 0
68 70 71 0
-68 -70 71 0
72 -67 0
72 71 0
67 -71 -72 0
73 66 0
73 -72 0
-66 72 -73 0
74 -57 0
74 -73 0
57 73 -74 0
-52 -30 -75 0
52 30 -75 0
-52 30 75 0
52 -30 75 0
-76 -7 0
-76 -75 0
7 75 76 0
6 43 -77 0
-6 -43 -77 0
6 -43 77 0
-6 43 77 0
79 -17 0
79 -37 0
17 37 -79 0
80 -28 0
80 79 0
28 -79 -80 0
-81 -25 0
-81 80 0
25 -80 81 0
78 -81 -82 0
-78 81 -82 0
78 81 82 0
-78 -81 82 0
-83 -47 0
-83 6 0
47 -6 83 0
84 -32 0
84 69 0
32 -69 -84 0
83 -84 -85 0
-83 84 -85 0
83 84 85 0
-83 -84 85 0
-86 -82 0
-86 -85 0
82 85 86 0
87 -77 0
87 86 0
77 -86 -87 0
88 76 0
88 87 0
-76 -87 -88 0
-89 -4 0
-89 -40 0
4 40 89 0
-37 -28 -90 0
37 28 -90 0
-37 28 90 0
37 -28 90 0
91 -39 0
91 -67 0
39 67 -91 0
-92 90 0
-92 -91 0
-90 91 92 0
93 -89 0
93 92 0
89 -92 -93 0
94 88 0
94 93 0
-88 -93 -94 0
95 10 0
95 38 0
-10 -38 -95 0
-96 -31 0
-96 -69 0
31 69 96 0
97 95 0
97 96 0
-95 -96 -97 0
-22 -69 -98 0
22 69 -98 0
-22 69 98 0
22 -69 98 0
99 -44 0
99 98 0
44 -98 -99 0
100 97 0
100 99 0
-97 -99 -100 0
101 33 0
101 -47 0
-33 47 -101 0
-102 -1 0
-102 31 0
1 -31 102 0
-103 49 0
-103 -95 0
-49 95 103 0
102 103 -104 0
-102 -103 -104 0
102 -103 104 0
-102 103 104 0
31 105 -106 0
-31 -105 -106 0
31 -105 106 0
-31 105 106 0
-107 106 0
-107 30 0
-106 -30 107 0
108 -104 0
108 -107 0
104 107 -108 0
-109 -3 0
-109 11 0
3 -11 109 0
110 70 0
110 -109 0
-70 109 -110 0
-111 108 0
-111 110 0
-108 -110 111 0
-101 111 -112 0
101 -111 -112 0
-101 -111 112 0
101 111 112 0
37 -58 -113 0
-37 58 -113 0
37 58 113 0
-37 -58 113 0
114 -106 0
114 113 0
106 -113 -114 0
-40 -14 -115 0
40 14 -115 0
-40 14 115 0
40 -14 115 0
-116 114 0
-116 115 0
-114 -115 116 0
-117 80 0
-117 31 0
-80 -31 117 0
-118 -116 0
-118 -117 0
116 117 118 0
112 -118 -119 0
-112 118 -119 0
112 118 119 0
-112 -118 119 0
-120 -100 0
-120 119 0
100 -119 120 0
-94 -120 -121 0
94 120 -121 0
-94 120 121 0
94 -120 121 0
71 -31 -122 0
-71 31 -122 0
71 31 122 0
-71 -31 122 0
123 2 0
123 122 0
-2 -122 -123 0
124 75 0
124 123 0
-75 -123 -124 0
-125 16 0
-125 -33 0
-16 33 125 0
124 125 -126 0
-124 -125 -126 0
124 -125 126 0
-124 125 126 0
-121 -126 -127 0
121 126 -127 0
-121 126 127 0
121 -126 127 0
128 74 0
128 127 0
-74 -127 -128 0
-30 42 61 66 -67 0
-48 80 26 0
-58 -57 51 101 -69 0
30 -94 -113 126 0
-101 121 -42 67 0
-51 110 0
-37 41 -82 -38 31 0
65 57 55 0
93 35 -95 0
-22 57 0
-40 44 -31 -45 0
126 26 64 -82 91 0
34 -127 0
-107 87 -118 0
-44 -73 -125 0
91 -112 124 -125 5 0
-77 -84 0
-25 -71 -110 -67 -87 0
126 60 99 0
112 -95 -124 0
-27 -109 -111 -10 -101 0
-80 -100 -39 -109 0
88 40 38 -48 0
-99 110 122 0
-102 -55 0
29 -107 -79 84 -68 85 0
-107 118 0
5 -12 -3 -44 0
44 85 97 0
11 83 102 -64 0
100 8 0
-122 80 -5 50 54 -94 0
114 -41 -71 118 92 85 0
21 -108 -36 118 -53 0
121 -99 75 0
-34 21 -29 -7 0
30 -69 -113 32 0
-115 72 -54 -22 0
126 29 -88 0
-108 119 -43 0
13 61 0
-98 21 -56 0
23 -58 -33 68 0
64 7 15 23 101 -60 0
72 9 0
-14 -35 -60 51 -36 0
-58 -27 -14 -21 -106 48 0
16 19 14 92 98 2 0
-59 35 -11 0
-7 -5 0
33 -43 -47 128 83 0
28 75 110 121 -25 81 0
-27 37 0
-115 13 0
113 118 -103 -58 124 0
71 39 -69 -16 62 -73 0
-113 70 59 -65 -37 0
-116 -12 50 35 0
-97 73 -52 -71 -37 0
-83 115 40 127 0
101 127 0
-22 67 0
-13 -11 49 0
112 -21 -117 48 3 10 0
-33 89 -107 -42 -118 0
99 66 -5 0
-54 -96 84 -4 27 0
21 -19 0
27 -74 0
115 -70 -38 -83 0
-24 75 1 120 -53 -124 0
-44 27 102 0
-31 -59 -75 -80 -13 109 0
17 101 -124 18 80 0
-63 6 60 53 0
10 8 -15 104 0
29 40 -81 -45 0
128 0
